c generated by FuzzSAT
p cnf 543 1624
-2 -3 -4 0
2 3 -4 0
-2 3 4 0
2 -3 4 0
4 5 -6 0
-4 -5 -6 0
4 -5 6 0
-4 5 6 0
-7 1 0
-7 6 0
-1 -6 7 0
8 -9 -10 0
-8 9 -10 0
8 9 10 0
-8 -9 10 0
10 -11 -12 0
-10 11 -12 0
10 11 12 0
-10 -11 12 0
-13 7 0
-13 -12 0
-7 12 13 0
14 -13 0
14 -6 0
13 6 -14 0
17 15 0
17 16 0
-15 -16 -17 0
21 -19 0
21 -20 0
19 20 -21 0
22 -18 0
22 -21 0
18 21 -22 0
23 24 -25 0
-23 -24 -25 0
23 -24 25 0
-23 24 25 0
-22 -25 -26 0
22 25 -26 0
-22 25 26 0
22 -25 26 0
-27 17 0
-27 -26 0
-17 26 27 0
28 -14 0
28 27 0
14 -27 -28 0
31 -29 0
31 -30 0
29 30 -31 0
-34 32 0
-34 -33 0
-32 33 34 0
31 34 -35 0
-31 -34 -35 0
31 -34 35 0
-31 34 35 0
39 2 0
39 38 0
-2 -38 -39 0
-37 39 -40 0
37 -39 -40 0
-37 -39 40 0
37 39 40 0
10 40 -41 0
-10 -40 -41 0
10 -40 41 0
-10 40 41 0
-41 42 -43 0
41 -42 -43 0
-41 -42 43 0
41 42 43 0
46 -44 0
46 -45 0
44 45 -46 0
-47 46 0
-47 21 0
-46 -21 47 0
-48 -2 0
-48 -47 0
2 47 48 0
49 -43 0
49 48 0
43 -48 -49 0
50 49 0
50 48 0
-49 -48 -50 0
51 36 0
51 50 0
-36 -50 -51 0
52 -10 -53 0
-52 10 -53 0
52 10 53 0
-52 -10 53 0
54 -40 0
54 53 0
40 -53 -54 0
55 42 -56 0
-55 -42 -56 0
55 -42 56 0
-55 42 56 0
56 57 -58 0
-56 -57 -58 0
56 -57 58 0
-56 57 58 0
54 58 -59 0
-54 -58 -59 0
54 -58 59 0
-54 58 59 0
60 61 -62 0
-60 -61 -62 0
60 -61 62 0
-60 61 62 0
62 10 -63 0
-62 -10 -63 0
62 -10 63 0
-62 10 63 0
66 -64 0
66 -65 0
64 65 -66 0
-67 -63 0
-67 -66 0
63 66 67 0
-68 59 0
-68 -67 0
-59 67 68 0
-70 -64 0
-70 69 0
64 -69 70 0
-71 70 0
-71 42 0
-70 -42 71 0
-72 -8 0
-72 -18 0
8 18 72 0
-74 -72 0
-74 73 0
72 -73 74 0
75 74 0
75 -65 0
-74 65 -75 0
77 76 0
77 40 0
-76 -40 -77 0
78 75 0
78 -77 0
-75 77 -78 0
80 78 0
80 -79 0
-78 79 -80 0
81 -71 0
81 80 0
71 -80 -81 0
-82 83 -84 0
82 -83 -84 0
-82 -83 84 0
82 83 84 0
85 -81 0
85 -84 0
81 84 -85 0
86 85 0
86 -83 0
-85 83 -86 0
-87 68 0
-87 86 0
-68 -86 87 0
-51 -87 -88 0
51 87 -88 0
-51 87 88 0
51 -87 88 0
35 -88 -89 0
-35 88 -89 0
35 88 89 0
-35 -88 89 0
-90 28 0
-90 89 0
-28 -89 90 0
-91 44 0
-91 39 0
-44 -39 91 0
92 -24 0
92 -91 0
24 91 -92 0
94 92 0
94 93 0
-92 -93 -94 0
-97 -95 0
-97 96 0
95 -96 97 0
-100 -98 0
-100 99 0
98 -99 100 0
-97 100 -101 0
97 -100 -101 0
-97 -100 101 0
97 100 101 0
102 39 0
102 -98 0
-39 98 -102 0
102 -103 -104 0
-102 103 -104 0
102 103 104 0
-102 -103 104 0
-101 -104 -105 0
101 104 -105 0
-101 104 105 0
101 -104 105 0
106 -94 0
106 105 0
94 -105 -106 0
-107 3 0
-107 -45 0
-3 45 107 0
-108 -79 0
-108 -99 0
79 99 108 0
-109 -108 0
-109 -73 0
108 73 109 0
-110 -109 0
-110 -54 0
109 54 110 0
-111 107 0
-111 110 0
-107 -110 111 0
82 112 -113 0
-82 -112 -113 0
82 -112 113 0
-82 112 113 0
9 73 -114 0
-9 -73 -114 0
9 -73 114 0
-9 73 114 0
113 114 -115 0
-113 -114 -115 0
113 -114 115 0
-113 114 115 0
111 115 -116 0
-111 -115 -116 0
111 -115 116 0
-111 115 116 0
42 41 -117 0
-42 -41 -117 0
42 -41 117 0
-42 41 117 0
-118 -117 0
-118 53 0
117 -53 118 0
19 61 -119 0
-19 -61 -119 0
19 -61 119 0
-19 61 119 0
-120 -119 0
-120 38 0
119 -38 120 0
121 -118 0
121 -120 0
118 120 -121 0
-122 -17 0
-122 -121 0
17 121 122 0
-124 60 0
-124 -123 0
-60 123 124 0
122 124 -125 0
-122 -124 -125 0
122 -124 125 0
-122 124 125 0
126 127 -128 0
-126 -127 -128 0
126 -127 128 0
-126 127 128 0
82 128 -129 0
-82 -128 -129 0
82 -128 129 0
-82 128 129 0
129 130 -131 0
-129 -130 -131 0
129 -130 131 0
-129 130 131 0
-103 132 0
103 132 0
-133 132 0
-133 -40 0
-132 40 133 0
131 133 -134 0
-131 -133 -134 0
131 -133 134 0
-131 133 134 0
-135 125 0
-135 134 0
-125 -134 135 0
136 -56 0
136 -36 0
56 36 -136 0
-137 -48 0
-137 -136 0
48 136 137 0
-138 135 0
-138 137 0
-135 -137 138 0
-139 -116 0
-139 138 0
116 -138 139 0
140 1 -141 0
-140 -1 -141 0
140 -1 141 0
-140 1 141 0
48 141 -142 0
-48 -141 -142 0
48 -141 142 0
-48 141 142 0
-96 -12 -143 0
96 12 -143 0
-96 12 143 0
96 -12 143 0
-142 -143 -144 0
142 143 -144 0
-142 143 144 0
142 -143 144 0
-139 -144 -145 0
139 144 -145 0
-139 144 145 0
139 -144 145 0
97 -3 -146 0
-97 3 -146 0
97 3 146 0
-97 -3 146 0
-147 -17 0
-147 146 0
17 -146 147 0
148 -147 0
148 83 0
147 -83 -148 0
-150 -39 0
-150 -149 0
39 149 150 0
-151 -150 0
-151 -41 0
150 41 151 0
152 151 0
152 33 0
-151 -33 -152 0
153 -152 0
153 72 0
152 -72 -153 0
-154 -11 0
-154 31 0
11 -31 154 0
155 153 0
155 -154 0
-153 154 -155 0
-92 -59 -156 0
92 59 -156 0
-92 59 156 0
92 -59 156 0
-157 124 0
-157 156 0
-124 -156 157 0
-158 -155 0
-158 -157 0
155 157 158 0
148 -158 -159 0
-148 158 -159 0
148 158 159 0
-148 -158 159 0
-162 160 0
-162 -161 0
-160 161 162 0
-163 -162 0
-163 -15 0
162 15 163 0
165 164 0
165 -73 0
-164 73 -165 0
-166 -165 0
-166 151 0
165 -151 166 0
-167 163 0
-167 -166 0
-163 166 167 0
168 -34 0
168 58 0
34 -58 -168 0
170 55 0
170 1 0
-55 -1 -170 0
171 -169 0
171 -170 0
169 170 -171 0
-172 -168 0
-172 171 0
168 -171 172 0
173 160 0
173 83 0
-160 -83 -173 0
174 173 0
174 60 0
-173 -60 -174 0
15 -174 -175 0
-15 174 -175 0
15 174 175 0
-15 -174 175 0
56 -113 -176 0
-56 113 -176 0
56 113 176 0
-56 -113 176 0
-69 100 -177 0
69 -100 -177 0
-69 -100 177 0
69 100 177 0
-178 151 0
-178 31 0
-151 -31 178 0
-177 -178 -179 0
177 178 -179 0
-177 178 179 0
177 -178 179 0
176 179 -180 0
-176 -179 -180 0
176 -179 180 0
-176 179 180 0
-181 47 0
-181 61 0
-47 -61 181 0
-182 24 0
-182 36 0
-24 -36 182 0
-182 52 -183 0
182 -52 -183 0
-182 -52 183 0
182 52 183 0
184 71 0
184 -183 0
-71 183 -184 0
185 -33 -186 0
-185 33 -186 0
185 33 186 0
-185 -33 186 0
-184 186 -187 0
184 -186 -187 0
-184 -186 187 0
184 186 187 0
-181 187 -188 0
181 -187 -188 0
-181 -187 188 0
181 187 188 0
-180 -188 -189 0
180 188 -189 0
-180 188 189 0
180 -188 189 0
-190 175 0
-190 189 0
-175 -189 190 0
-191 126 0
-191 173 0
-126 -173 191 0
141 -191 -192 0
-141 191 -192 0
141 191 192 0
-141 -191 192 0
-91 192 -193 0
91 -192 -193 0
-91 -192 193 0
91 192 193 0
195 -154 0
195 194 0
154 -194 -195 0
196 193 0
196 195 0
-193 -195 -196 0
197 -190 0
197 196 0
190 -196 -197 0
-198 -72 0
-198 -57 0
72 57 198 0
197 198 -199 0
-197 -198 -199 0
197 -198 199 0
-197 198 199 0
-200 172 0
-200 199 0
-172 -199 200 0
201 -167 0
201 200 0
167 -200 -201 0
-202 -159 0
-202 201 0
159 -201 202 0
-145 202 -203 0
145 -202 -203 0
-145 -202 203 0
145 202 203 0
-204 37 0
-204 82 0
-37 -82 204 0
205 63 0
205 -76 0
-63 76 -205 0
-206 -204 0
-206 205 0
204 -205 206 0
-208 -165 -209 0
208 165 -209 0
-208 165 209 0
208 -165 209 0
-207 209 -210 0
207 -209 -210 0
-207 -209 210 0
207 209 210 0
-212 -211 0
-212 -185 0
211 185 212 0
-213 17 0
-213 212 0
-17 -212 213 0
-210 213 -214 0
210 -213 -214 0
-210 -213 214 0
210 213 214 0
215 -206 0
215 -214 0
206 214 -215 0
-216 203 0
-216 215 0
-203 -215 216 0
-217 -106 0
-217 216 0
106 -216 217 0
218 90 0
218 -217 0
-90 217 -218 0
220 -219 0
220 95 0
219 -95 -220 0
-74 220 -221 0
74 -220 -221 0
-74 -220 221 0
74 220 221 0
-222 102 0
-222 -82 0
-102 82 222 0
-223 221 0
-223 -222 0
-221 222 223 0
225 -224 0
225 119 0
224 -119 -225 0
-226 60 0
-226 9 0
-60 -9 226 0
-227 160 0
-227 66 0
-160 -66 227 0
-228 -226 0
-228 227 0
226 -227 228 0
229 225 0
229 228 0
-225 -228 -229 0
231 63 0
231 34 0
-63 -34 -231 0
-232 230 0
-232 -231 0
-230 231 232 0
219 65 -233 0
-219 -65 -233 0
219 -65 233 0
-219 65 233 0
-234 233 0
-234 -32 0
-233 32 234 0
-211 -173 -235 0
211 173 -235 0
-211 173 235 0
211 -173 235 0
236 -152 0
236 -235 0
152 235 -236 0
-237 -234 0
-237 236 0
234 -236 237 0
-232 -237 -238 0
232 237 -238 0
-232 237 238 0
232 -237 238 0
239 -10 0
239 -160 0
10 160 -239 0
240 -8 0
240 23 0
8 -23 -240 0
-241 118 0
-241 -240 0
-118 240 241 0
242 -143 0
242 241 0
143 -241 -242 0
-243 -242 0
-243 -140 0
242 140 243 0
-239 243 -244 0
239 -243 -244 0
-239 -243 244 0
239 243 244 0
-245 -238 0
-245 -244 0
238 244 245 0
229 -245 -246 0
-229 245 -246 0
229 245 246 0
-229 -245 246 0
-247 -223 0
-247 -246 0
223 246 247 0
-249 126 0
-249 248 0
-126 -248 249 0
-93 112 -250 0
93 -112 -250 0
-93 -112 250 0
93 112 250 0
-251 249 0
-251 250 0
-249 -250 251 0
252 253 -254 0
-252 -253 -254 0
252 -253 254 0
-252 253 254 0
-256 178 0
-256 255 0
-178 -255 256 0
254 -256 -257 0
-254 256 -257 0
254 256 257 0
-254 -256 257 0
-251 257 -258 0
251 -257 -258 0
-251 -257 258 0
251 257 258 0
-119 -108 -259 0
119 108 -259 0
-119 108 259 0
119 -108 259 0
260 259 0
260 -136 0
-259 136 -260 0
66 -126 -261 0
-66 126 -261 0
66 126 261 0
-66 -126 261 0
260 261 -262 0
-260 -261 -262 0
260 -261 262 0
-260 261 262 0
-263 42 0
-263 -96 0
-42 96 263 0
-264 262 0
-264 -263 0
-262 263 264 0
-96 166 -265 0
96 -166 -265 0
-96 -166 265 0
96 166 265 0
-267 -174 0
-267 -19 0
174 19 267 0
-266 -267 -268 0
266 267 -268 0
-266 267 268 0
266 -267 268 0
-269 265 0
-269 -268 0
-265 268 269 0
-270 252 0
-270 164 0
-252 -164 270 0
-271 -48 0
-271 270 0
48 -270 271 0
-273 271 0
-273 -272 0
-271 272 273 0
-274 269 0
-274 273 0
-269 -273 274 0
-264 -274 -275 0
264 274 -275 0
-264 274 275 0
264 -274 275 0
276 -258 0
276 -275 0
258 275 -276 0
-247 -276 -277 0
247 276 -277 0
-247 276 277 0
247 -276 277 0
218 -277 -278 0
-218 277 -278 0
218 277 278 0
-218 -277 278 0
-279 -253 0
-279 -69 0
253 69 279 0
-280 165 0
-280 -279 0
-165 279 280 0
281 32 0
281 10 0
-32 -10 -281 0
-282 -280 0
-282 -281 0
280 281 282 0
80 42 -283 0
-80 -42 -283 0
80 -42 283 0
-80 42 283 0
284 -48 0
284 259 0
48 -259 -284 0
-285 283 0
-285 -284 0
-283 284 285 0
-286 141 0
-286 -169 0
-141 169 286 0
287 -30 0
287 -286 0
30 286 -287 0
288 -7 0
288 1 0
7 -1 -288 0
-289 288 0
-289 -248 0
-288 248 289 0
290 133 0
290 289 0
-133 -289 -290 0
291 75 0
291 290 0
-75 -290 -291 0
292 -287 0
292 291 0
287 -291 -292 0
-285 292 -293 0
285 -292 -293 0
-285 -292 293 0
285 292 293 0
-294 100 0
-294 -74 0
-100 74 294 0
294 241 -295 0
-294 -241 -295 0
294 -241 295 0
-294 241 295 0
296 265 0
296 295 0
-265 -295 -296 0
-297 -92 -298 0
297 92 -298 0
-297 92 298 0
297 -92 298 0
-299 -296 0
-299 298 0
296 -298 299 0
-300 -293 0
-300 -299 0
293 299 300 0
301 282 0
301 300 0
-282 -300 -301 0
-231 -212 -302 0
231 212 -302 0
-231 212 302 0
231 -212 302 0
303 230 0
303 -40 0
-230 40 -303 0
303 207 -304 0
-303 -207 -304 0
303 -207 304 0
-303 207 304 0
-305 -304 0
-305 98 0
304 -98 305 0
302 -305 -306 0
-302 305 -306 0
302 305 306 0
-302 -305 306 0
-194 -83 -307 0
194 83 -307 0
-194 83 307 0
194 -83 307 0
-308 -21 0
-308 -307 0
21 307 308 0
-309 308 0
-309 -161 0
-308 161 309 0
-310 146 0
-310 82 0
-146 -82 310 0
311 309 0
311 310 0
-309 -310 -311 0
-312 306 0
-312 -311 0
-306 311 312 0
-242 -98 -313 0
242 98 -313 0
-242 98 313 0
242 -98 313 0
272 -24 -314 0
-272 24 -314 0
272 24 314 0
-272 -24 314 0
-313 314 -315 0
313 -314 -315 0
-313 -314 315 0
313 314 315 0
-316 312 0
-316 -315 0
-312 315 316 0
160 -169 -317 0
-160 169 -317 0
160 169 317 0
-160 -169 317 0
-318 -126 0
-318 45 0
126 -45 318 0
318 -83 -319 0
-318 83 -319 0
318 83 319 0
-318 -83 319 0
320 -170 0
320 319 0
170 -319 -320 0
-321 320 0
-321 -78 0
-320 78 321 0
-322 -317 0
-322 321 0
317 -321 322 0
323 -42 0
323 -112 0
42 112 -323 0
-76 192 -324 0
76 -192 -324 0
-76 -192 324 0
76 192 324 0
323 324 -325 0
-323 -324 -325 0
323 -324 325 0
-323 324 325 0
-327 -325 0
-327 -326 0
325 326 327 0
97 -63 -328 0
-97 63 -328 0
97 63 328 0
-97 -63 328 0
329 -327 0
329 328 0
327 -328 -329 0
-98 -128 -330 0
98 128 -330 0
-98 128 330 0
98 -128 330 0
331 -120 0
331 209 0
120 -209 -331 0
-332 -22 0
-332 -331 0
22 331 332 0
-330 -332 -333 0
330 332 -333 0
-330 332 333 0
330 -332 333 0
334 30 0
334 85 0
-30 -85 -334 0
333 334 -335 0
-333 -334 -335 0
333 -334 335 0
-333 334 335 0
-119 177 -336 0
119 -177 -336 0
-119 -177 336 0
119 177 336 0
337 326 0
337 -336 0
-326 336 -337 0
338 335 0
338 337 0
-335 -337 -338 0
-76 164 -339 0
76 -164 -339 0
-76 -164 339 0
76 164 339 0
340 191 0
340 -339 0
-191 339 -340 0
-341 338 0
-341 340 0
-338 -340 341 0
-342 2 0
-342 24 0
-2 -24 342 0
343 183 0
343 -287 0
-183 287 -343 0
344 342 0
344 343 0
-342 -343 -344 0
-341 -344 -345 0
341 344 -345 0
-341 344 345 0
341 -344 345 0
230 178 -346 0
-230 -178 -346 0
230 -178 346 0
-230 178 346 0
347 41 0
347 65 0
-41 -65 -347 0
-348 -347 0
-348 211 0
347 -211 348 0
-349 252 0
-349 -348 0
-252 348 349 0
350 -346 0
350 -349 0
346 349 -350 0
70 -61 -351 0
-70 61 -351 0
70 61 351 0
-70 -61 351 0
160 351 -352 0
-160 -351 -352 0
160 -351 352 0
-160 351 352 0
-42 52 -353 0
42 -52 -353 0
-42 -52 353 0
42 52 353 0
-354 352 0
-354 353 0
-352 -353 354 0
355 347 0
355 -354 0
-347 354 -355 0
-356 -230 0
-356 355 0
230 -355 356 0
350 -356 -357 0
-350 356 -357 0
350 356 357 0
-350 -356 357 0
303 -352 -358 0
-303 352 -358 0
303 352 358 0
-303 -352 358 0
-359 -357 0
-359 -358 0
357 358 359 0
-360 345 0
-360 -359 0
-345 359 360 0
-361 329 0
-361 -360 0
-329 360 361 0
322 361 -362 0
-322 -361 -362 0
322 -361 362 0
-322 361 362 0
-363 316 0
-363 362 0
-316 -362 363 0
-364 301 0
-364 -363 0
-301 363 364 0
-365 -278 0
-365 -364 0
278 364 365 0
10 61 -366 0
-10 -61 -366 0
10 -61 366 0
-10 61 366 0
367 112 0
367 230 0
-112 -230 -367 0
368 -57 0
368 186 0
57 -186 -368 0
369 57 0
369 92 0
-57 -92 -369 0
-370 128 0
-370 47 0
-128 -47 370 0
371 4 0
371 -132 0
-4 132 -371 0
372 -55 0
372 29 0
55 -29 -372 0
373 -161 0
373 -50 0
161 50 -373 0
-372 -373 -374 0
372 373 -374 0
-372 373 374 0
372 -373 374 0
-375 249 0
-375 339 0
-249 -339 375 0
374 -375 -376 0
-374 375 -376 0
374 375 376 0
-374 -375 376 0
-377 371 0
-377 376 0
-371 -376 377 0
-370 377 -378 0
370 -377 -378 0
-370 -377 378 0
370 377 378 0
379 331 0
379 -49 0
-331 49 -379 0
380 -309 0
380 32 0
309 -32 -380 0
-381 -380 0
-381 33 0
380 -33 381 0
-379 381 -382 0
379 -381 -382 0
-379 -381 382 0
379 381 382 0
383 219 0
383 97 0
-219 -97 -383 0
383 353 -384 0
-383 -353 -384 0
383 -353 384 0
-383 353 384 0
288 -385 -386 0
-288 385 -386 0
288 385 386 0
-288 -385 386 0
-387 383 0
-387 57 0
-383 -57 387 0
-388 147 0
-388 387 0
-147 -387 388 0
-389 386 0
-389 -388 0
-386 388 389 0
390 -384 0
390 389 0
384 -389 -390 0
-391 320 0
-391 -120 0
-320 120 391 0
-392 -99 0
-392 65 0
99 -65 392 0
391 392 -393 0
-391 -392 -393 0
391 -392 393 0
-391 392 393 0
-394 -390 0
-394 -393 0
390 393 394 0
-395 -382 0
-395 -394 0
382 394 395 0
-396 -378 0
-396 -395 0
378 395 396 0
-397 -369 0
-397 396 0
369 -396 397 0
-368 397 -398 0
368 -397 -398 0
-368 -397 398 0
368 397 398 0
399 -7 0
399 272 0
7 -272 -399 0
401 33 0
401 9 0
-33 -9 -401 0
400 401 -402 0
-400 -401 -402 0
400 -401 402 0
-400 401 402 0
-403 402 0
-403 -76 0
-402 76 403 0
404 -399 0
404 -403 0
399 403 -404 0
-398 -404 -405 0
398 404 -405 0
-398 404 405 0
398 -404 405 0
406 -367 0
406 405 0
367 -405 -406 0
407 366 0
407 -406 0
-366 406 -407 0
408 409 0
-408 409 0
410 38 0
410 4 0
-38 -4 -410 0
411 -409 0
411 410 0
409 -410 -411 0
412 -127 0
412 383 0
127 -383 -412 0
413 -107 0
413 412 0
107 -412 -413 0
414 -354 0
414 -413 0
354 413 -414 0
411 414 -415 0
-411 -414 -415 0
411 -414 415 0
-411 414 415 0
-417 416 0
-417 96 0
-416 -96 417 0
-248 417 -418 0
248 -417 -418 0
-248 -417 418 0
248 417 418 0
419 418 0
419 20 0
-418 -20 -419 0
415 -419 -420 0
-415 419 -420 0
415 419 420 0
-415 -419 420 0
-421 303 -422 0
421 -303 -422 0
-421 -303 422 0
421 303 422 0
-423 -112 0
-423 -183 0
112 183 423 0
424 422 0
424 -423 0
-422 423 -424 0
420 -424 -425 0
-420 424 -425 0
420 424 425 0
-420 -424 425 0
-401 -16 -426 0
401 16 -426 0
-401 16 426 0
401 -16 426 0
427 -29 0
427 -52 0
29 52 -427 0
-428 107 0
-428 427 0
-107 -427 428 0
-429 426 0
-429 -428 0
-426 428 429 0
-71 46 -430 0
71 -46 -430 0
-71 -46 430 0
71 46 430 0
-336 -117 -431 0
336 117 -431 0
-336 117 431 0
336 -117 431 0
-432 -430 0
-432 431 0
430 -431 432 0
429 432 -433 0
-429 -432 -433 0
429 -432 433 0
-429 432 433 0
-434 -425 0
-434 -433 0
425 433 434 0
-407 -434 -435 0
407 434 -435 0
-407 434 435 0
407 -434 435 0
33 -4 -436 0
-33 4 -436 0
33 4 436 0
-33 -4 436 0
-421 -436 -437 0
421 436 -437 0
-421 436 437 0
421 -436 437 0
439 -194 0
439 -438 0
194 438 -439 0
-33 439 -440 0
33 -439 -440 0
-33 -439 440 0
33 439 440 0
-441 -437 0
-441 440 0
437 -440 441 0
-112 -84 -442 0
112 84 -442 0
-112 84 442 0
112 -84 442 0
443 -347 0
443 44 0
347 -44 -443 0
443 -204 -444 0
-443 204 -444 0
443 204 444 0
-443 -204 444 0
-445 9 0
-445 130 0
-9 -130 445 0
186 -169 -446 0
-186 169 -446 0
186 169 446 0
-186 -169 446 0
447 -446 0
447 -132 0
446 132 -447 0
448 10 0
448 208 0
-10 -208 -448 0
449 447 0
449 -448 0
-447 448 -449 0
-445 449 -450 0
445 -449 -450 0
-445 -449 450 0
445 449 450 0
-451 -444 0
-451 -450 0
444 450 451 0
-452 -442 0
-452 -451 0
442 451 452 0
453 441 0
453 452 0
-441 -452 -453 0
454 -435 0
454 453 0
435 -453 -454 0
365 -454 -455 0
-365 454 -455 0
365 454 455 0
-365 -454 455 0
-456 -166 0
-456 65 0
166 -65 456 0
457 455 0
457 456 0
-455 -456 -457 0
458 235 0
458 24 0
-235 -24 -458 0
458 151 -459 0
-458 -151 -459 0
458 -151 459 0
-458 151 459 0
220 459 -460 0
-220 -459 -460 0
220 -459 460 0
-220 459 460 0
461 -142 0
461 -64 0
142 64 -461 0
352 -461 -462 0
-352 461 -462 0
352 461 462 0
-352 -461 462 0
-463 -460 0
-463 462 0
460 -462 463 0
-464 73 0
-464 -11 0
-73 11 464 0
-62 45 -465 0
62 -45 -465 0
-62 -45 465 0
62 45 465 0
-466 464 0
-466 -465 0
-464 465 466 0
467 -417 0
467 211 0
417 -211 -467 0
-169 -468 -469 0
169 468 -469 0
-169 468 469 0
169 -468 469 0
-120 98 -470 0
120 -98 -470 0
-120 -98 470 0
120 98 470 0
469 -470 -471 0
-469 470 -471 0
469 470 471 0
-469 -470 471 0
-467 471 -472 0
467 -471 -472 0
-467 -471 472 0
467 471 472 0
-473 -466 0
-473 472 0
466 -472 473 0
183 249 -474 0
-183 -249 -474 0
183 -249 474 0
-183 249 474 0
-475 -191 0
-475 -474 0
191 474 475 0
-476 60 0
-476 475 0
-60 -475 476 0
473 -476 -477 0
-473 476 -477 0
473 476 477 0
-473 -476 477 0
-478 46 0
-478 62 0
-46 -62 478 0
-478 192 -479 0
478 -192 -479 0
-478 -192 479 0
478 192 479 0
477 479 -480 0
-477 -479 -480 0
477 -479 480 0
-477 479 480 0
463 -480 -481 0
-463 480 -481 0
463 480 481 0
-463 -480 481 0
438 268 -482 0
-438 -268 -482 0
438 -268 482 0
-438 268 482 0
483 -482 0
483 63 0
482 -63 -483 0
446 272 -484 0
-446 -272 -484 0
446 -272 484 0
-446 272 484 0
485 29 0
485 -248 0
-29 248 -485 0
486 -485 0
486 -212 0
485 212 -486 0
487 37 0
487 160 0
-37 -160 -487 0
486 -487 -488 0
-486 487 -488 0
486 487 488 0
-486 -487 488 0
-489 -77 0
-489 37 0
77 -37 489 0
-488 -489 -490 0
488 489 -490 0
-488 489 490 0
488 -489 490 0
-491 -484 0
-491 -490 0
484 490 491 0
483 -491 -492 0
-483 491 -492 0
483 491 492 0
-483 -491 492 0
493 -400 0
493 60 0
400 -60 -493 0
-494 493 0
-494 -348 0
-493 348 494 0
-495 119 0
-495 339 0
-119 -339 495 0
-70 495 -496 0
70 -495 -496 0
-70 -495 496 0
70 495 496 0
497 496 0
497 253 0
-496 -253 -497 0
-498 -233 0
-498 18 0
233 -18 498 0
-499 497 0
-499 -498 0
-497 498 499 0
92 13 -500 0
-92 -13 -500 0
92 -13 500 0
-92 13 500 0
501 -224 0
501 -43 0
224 43 -501 0
502 -500 0
502 501 0
500 -501 -502 0
499 502 -503 0
-499 -502 -503 0
499 -502 503 0
-499 502 503 0
504 494 0
504 -503 0
-494 503 -504 0
-505 492 0
-505 504 0
-492 -504 505 0
506 -211 0
506 -40 0
211 40 -506 0
-507 152 0
-507 -40 0
-152 40 507 0
-508 -182 0
-508 -507 0
182 507 508 0
-46 508 -509 0
46 -508 -509 0
-46 -508 509 0
46 508 509 0
510 84 0
510 -353 0
-84 353 -510 0
511 -352 0
511 510 0
352 -510 -511 0
-512 509 0
-512 511 0
-509 -511 512 0
-513 -126 0
-513 -23 0
126 23 513 0
-514 -512 0
-514 513 0
512 -513 514 0
515 -506 0
515 514 0
506 -514 -515 0
-516 65 0
-516 -207 0
-65 207 516 0
517 91 0
517 516 0
-91 -516 -517 0
518 -517 0
518 52 0
517 -52 -518 0
-519 -100 0
-519 -42 0
100 42 519 0
520 120 0
520 519 0
-120 -519 -520 0
-146 520 -521 0
146 -520 -521 0
-146 -520 521 0
146 520 521 0
-49 -352 -522 0
49 352 -522 0
-49 352 522 0
49 -352 522 0
-124 108 -523 0
124 -108 -523 0
-124 -108 523 0
124 108 523 0
524 -523 0
524 1 0
523 -1 -524 0
522 -524 -525 0
-522 524 -525 0
522 524 525 0
-522 -524 525 0
526 -521 0
526 -525 0
521 525 -526 0
527 -518 0
527 526 0
518 -526 -527 0
-528 -515 0
-528 -527 0
515 527 528 0
529 -57 0
529 -421 0
57 421 -529 0
-530 -78 0
-530 84 0
78 -84 530 0
529 -530 -531 0
-529 530 -531 0
529 530 531 0
-529 -530 531 0
-50 140 -532 0
50 -140 -532 0
-50 -140 532 0
50 140 532 0
-533 -123 0
-533 -141 0
123 141 533 0
-534 533 0
-534 -72 0
-533 72 534 0
24 534 -535 0
-24 -534 -535 0
24 -534 535 0
-24 534 535 0
532 -535 -536 0
-532 535 -536 0
532 535 536 0
-532 -535 536 0
-537 -531 0
-537 -536 0
531 536 537 0
538 -528 0
538 -537 0
528 537 -538 0
-539 -320 0
-539 -130 0
320 130 539 0
-540 -538 0
-540 -539 0
538 539 540 0
-541 -505 0
-541 540 0
505 -540 541 0
-481 -541 -542 0
481 541 -542 0
-481 541 542 0
481 -541 542 0
543 -457 0
543 -542 0
457 542 -543 0
-263 351 -441 332 -231 0
41 -456 474 -363 445 309 0
-307 -243 0
218 -265 11 179 508 0
96 -541 0
110 410 504 267 0
-417 -343 63 526 -159 0
-383 -375 -167 0
-118 -172 0
-31 -161 0
-498 122 0
-30 -526 0
-41 337 0
235 532 -503 394 0
106 -441 -450 0
106 -416 0
-125 510 0
-446 -392 204 362 -290 127 0
76 -172 248 137 -8 445 0
-218 469 341 0
265 -171 338 -382 0
-181 -270 -133 495 0
25 -205 0
-395 362 -457 219 117 0
434 -11 383 -114 0
-289 -22 -158 0
-175 -358 0
303 -133 -441 421 -316 264 0
286 456 -451 0
30 282 -472 325 542 104 0
-384 116 0
-41 -385 452 -94 -184 0
210 227 0
-457 -396 528 0
155 -309 215 265 -353 0
257 388 100 409 121 0
-151 -92 185 343 0
474 276 -220 356 0
-370 120 -74 291 0
-357 -537 71 -422 452 183 0
-232 155 298 -70 0
385 -331 -137 -409 289 528 0
212 375 -39 0
322 -106 -119 0
-227 419 -59 468 0
233 -383 -12 0
216 -527 -367 0
43 121 505 -412 330 0
-302 -26 0
-324 118 284 225 0
314 -457 -358 0
252 177 0
-157 476 -368 153 0
-489 94 -277 0
434 -404 302 -57 123 0
-89 84 0
270 392 0
-188 249 0
-439 -350 -170 -125 -214 203 0
40 450 97 155 413 0
25 -385 230 -228 513 345 0
-369 291 0
543 0